(set-logic QF_S)
(set-option :strings-exp true)
(set-option :produce-models true)
(declare-fun sigmaStar_0 () String)
(declare-fun literal_6 () String)
(assert (= literal_6 "\x2f\x6c\x61\x6e\x67\x2f\x65\x6e\x5f\x75\x74\x66\x38\x2f\x63\x75\x72\x72\x65\x6e\x74\x66\x69\x6c\x65"))
(assert (str.in.re literal_6 (re.++ (re.* re.allchar) (re.++ (str.to.re "\x2f\x65\x76\x69\x6c") (re.* re.allchar)))))
(check-sat)
(get-model)
